NAME : swiss42-R-3-1-b.1607.tour
COMMENT : Length = 1607
COMMENT : Found by LKH-3 [Keld Helsgaun] Tue Jul 30 13:14:22 2024
TYPE : TOUR
DIMENSION : 42
TOUR_SECTION
1
33
36
37
18
8
2
7
20
14
19
13
9
30
31
39
23
25
41
22
40
10
24
42
11
26
12
27
6
15
17
16
38
32
21
34
35
29
28
3
5
4
-1
EOF
